p edge 593 1088
e 1 7 1
e 1 2 1
e 2 8 1
e 2 3 1
e 3 9 1
e 3 4 1
e 4 10 1
e 5 13 1
e 5 6 1
e 6 14 1
e 6 7 1
e 7 15 1
e 7 8 1
e 8 16 1
e 8 9 1
e 9 17 1
e 9 10 1
e 10 18 1
e 11 22 1
e 11 12 1
e 12 23 1
e 12 13 1
e 13 24 1
e 13 14 1
e 14 25 1
e 14 15 1
e 15 26 1
e 15 16 1
e 16 27 1
e 16 17 1
e 17 28 1
e 17 18 1
e 18 29 1
e 18 19 1
e 19 30 1
e 19 20 1
e 20 31 1
e 20 21 1
e 21 32 1
e 22 23 1
e 23 24 1
e 24 25 1
e 25 26 1
e 26 27 1
e 27 28 1
e 28 29 1
e 29 30 1
e 30 31 1
e 31 32 1
e 32 34 1
e 32 33 1
e 33 35 1
e 34 40 1
e 34 35 1
e 35 41 1
e 35 36 1
e 36 42 1
e 36 37 1
e 37 43 1
e 38 44 1
e 38 39 1
e 39 45 1
e 40 50 1
e 40 41 1
e 41 51 1
e 41 42 1
e 42 52 1
e 42 43 1
e 43 53 1
e 44 54 1
e 44 45 1
e 45 55 1
e 45 46 1
e 46 56 1
e 46 47 1
e 47 57 1
e 47 48 1
e 48 58 1
e 48 49 1
e 49 59 1
e 50 60 1
e 50 51 1
e 51 61 1
e 51 52 1
e 52 62 1
e 52 53 1
e 53 63 1
e 54 64 1
e 54 55 1
e 55 65 1
e 55 56 1
e 56 66 1
e 56 57 1
e 57 67 1
e 57 58 1
e 58 68 1
e 58 59 1
e 59 69 1
e 60 85 1
e 60 61 1
e 61 86 1
e 61 62 1
e 62 87 1
e 62 63 1
e 63 88 1
e 64 92 1
e 64 65 1
e 65 93 1
e 65 66 1
e 66 94 1
e 66 67 1
e 67 95 1
e 67 68 1
e 68 96 1
e 68 69 1
e 69 97 1
e 69 70 1
e 70 98 1
e 70 71 1
e 71 99 1
e 71 72 1
e 72 100 1
e 72 73 1
e 73 101 1
e 73 74 1
e 74 102 1
e 74 75 1
e 75 103 1
e 75 76 1
e 76 104 1
e 76 77 1
e 77 105 1
e 77 78 1
e 78 106 1
e 78 79 1
e 79 107 1
e 79 80 1
e 80 108 1
e 80 81 1
e 81 109 1
e 81 82 1
e 82 110 1
e 82 83 1
e 83 111 1
e 83 84 1
e 84 112 1
e 84 85 1
e 85 113 1
e 85 86 1
e 86 114 1
e 86 87 1
e 87 115 1
e 87 88 1
e 88 116 1
e 89 90 1
e 90 117 1
e 90 91 1
e 91 118 1
e 91 92 1
e 92 119 1
e 92 93 1
e 93 120 1
e 93 94 1
e 94 121 1
e 94 95 1
e 95 122 1
e 95 96 1
e 96 123 1
e 96 97 1
e 97 124 1
e 97 98 1
e 98 125 1
e 98 99 1
e 99 126 1
e 99 100 1
e 100 127 1
e 100 101 1
e 101 128 1
e 101 102 1
e 102 129 1
e 102 103 1
e 103 130 1
e 103 104 1
e 104 131 1
e 104 105 1
e 105 132 1
e 105 106 1
e 106 133 1
e 106 107 1
e 107 134 1
e 107 108 1
e 108 135 1
e 108 109 1
e 109 136 1
e 109 110 1
e 110 137 1
e 110 111 1
e 111 138 1
e 111 112 1
e 112 139 1
e 112 113 1
e 113 140 1
e 113 114 1
e 114 141 1
e 114 115 1
e 115 142 1
e 115 116 1
e 116 143 1
e 117 144 1
e 117 118 1
e 118 145 1
e 118 119 1
e 119 146 1
e 119 120 1
e 120 147 1
e 120 121 1
e 121 148 1
e 121 122 1
e 122 149 1
e 122 123 1
e 123 150 1
e 123 124 1
e 124 151 1
e 124 125 1
e 125 152 1
e 125 126 1
e 126 153 1
e 126 127 1
e 127 154 1
e 127 128 1
e 128 155 1
e 128 129 1
e 129 156 1
e 129 130 1
e 130 157 1
e 130 131 1
e 131 158 1
e 131 132 1
e 132 159 1
e 132 133 1
e 133 160 1
e 133 134 1
e 134 161 1
e 134 135 1
e 135 162 1
e 135 136 1
e 136 163 1
e 136 137 1
e 137 164 1
e 137 138 1
e 138 165 1
e 138 139 1
e 139 166 1
e 139 140 1
e 140 167 1
e 140 141 1
e 141 168 1
e 141 142 1
e 142 169 1
e 142 143 1
e 143 170 1
e 144 145 1
e 145 171 1
e 145 146 1
e 146 172 1
e 146 147 1
e 147 173 1
e 147 148 1
e 148 174 1
e 148 149 1
e 149 175 1
e 149 150 1
e 150 176 1
e 150 151 1
e 151 177 1
e 151 152 1
e 152 178 1
e 152 153 1
e 153 179 1
e 153 154 1
e 154 180 1
e 154 155 1
e 155 181 1
e 155 156 1
e 156 182 1
e 156 157 1
e 157 183 1
e 157 158 1
e 158 184 1
e 158 159 1
e 159 185 1
e 159 160 1
e 160 186 1
e 160 161 1
e 161 187 1
e 161 162 1
e 162 188 1
e 162 163 1
e 163 189 1
e 163 164 1
e 164 190 1
e 164 165 1
e 165 191 1
e 165 166 1
e 166 192 1
e 166 167 1
e 167 193 1
e 167 168 1
e 168 194 1
e 168 169 1
e 169 195 1
e 169 170 1
e 170 196 1
e 171 172 1
e 172 173 1
e 173 197 1
e 173 174 1
e 174 198 1
e 174 175 1
e 175 199 1
e 175 176 1
e 176 200 1
e 176 177 1
e 177 201 1
e 177 178 1
e 178 202 1
e 178 179 1
e 179 203 1
e 179 180 1
e 180 204 1
e 180 181 1
e 181 205 1
e 181 182 1
e 182 206 1
e 182 183 1
e 183 207 1
e 183 184 1
e 184 208 1
e 184 185 1
e 185 209 1
e 185 186 1
e 186 210 1
e 186 187 1
e 187 211 1
e 187 188 1
e 188 212 1
e 188 189 1
e 189 213 1
e 189 190 1
e 190 214 1
e 190 191 1
e 191 215 1
e 191 192 1
e 192 216 1
e 192 193 1
e 193 217 1
e 193 194 1
e 194 218 1
e 194 195 1
e 195 219 1
e 195 196 1
e 196 220 1
e 197 221 1
e 197 198 1
e 198 222 1
e 198 199 1
e 199 223 1
e 199 200 1
e 200 224 1
e 200 201 1
e 201 225 1
e 201 202 1
e 202 226 1
e 202 203 1
e 203 227 1
e 203 204 1
e 204 228 1
e 204 205 1
e 205 229 1
e 205 206 1
e 206 230 1
e 206 207 1
e 207 208 1
e 208 209 1
e 209 210 1
e 210 231 1
e 210 211 1
e 211 232 1
e 211 212 1
e 212 233 1
e 212 213 1
e 213 234 1
e 213 214 1
e 214 235 1
e 214 215 1
e 215 236 1
e 215 216 1
e 216 237 1
e 216 217 1
e 217 238 1
e 217 218 1
e 218 239 1
e 218 219 1
e 219 240 1
e 219 220 1
e 220 241 1
e 221 243 1
e 221 222 1
e 222 244 1
e 222 223 1
e 223 245 1
e 223 224 1
e 224 246 1
e 224 225 1
e 225 247 1
e 225 226 1
e 226 248 1
e 226 227 1
e 227 249 1
e 227 228 1
e 228 250 1
e 228 229 1
e 229 251 1
e 229 230 1
e 231 232 1
e 232 252 1
e 232 233 1
e 233 253 1
e 233 234 1
e 234 254 1
e 234 235 1
e 235 255 1
e 235 236 1
e 236 256 1
e 236 237 1
e 237 257 1
e 237 238 1
e 238 258 1
e 238 239 1
e 239 259 1
e 239 240 1
e 240 260 1
e 240 241 1
e 241 261 1
e 242 243 1
e 243 262 1
e 243 244 1
e 244 263 1
e 244 245 1
e 245 264 1
e 245 246 1
e 246 265 1
e 246 247 1
e 247 266 1
e 247 248 1
e 248 267 1
e 248 249 1
e 249 268 1
e 249 250 1
e 250 269 1
e 250 251 1
e 251 270 1
e 252 272 1
e 252 253 1
e 253 273 1
e 253 254 1
e 254 274 1
e 254 255 1
e 255 275 1
e 255 256 1
e 256 276 1
e 256 257 1
e 257 277 1
e 257 258 1
e 258 278 1
e 258 259 1
e 259 260 1
e 260 261 1
e 262 280 1
e 262 263 1
e 263 281 1
e 263 264 1
e 264 282 1
e 264 265 1
e 265 283 1
e 265 266 1
e 266 284 1
e 266 267 1
e 267 285 1
e 267 268 1
e 268 286 1
e 268 269 1
e 269 287 1
e 269 270 1
e 270 288 1
e 270 271 1
e 271 289 1
e 272 292 1
e 272 273 1
e 273 293 1
e 273 274 1
e 274 294 1
e 274 275 1
e 275 295 1
e 275 276 1
e 276 296 1
e 276 277 1
e 277 297 1
e 277 278 1
e 279 299 1
e 279 280 1
e 280 300 1
e 280 281 1
e 281 301 1
e 281 282 1
e 282 302 1
e 282 283 1
e 283 303 1
e 283 284 1
e 284 304 1
e 284 285 1
e 285 305 1
e 285 286 1
e 286 306 1
e 286 287 1
e 287 307 1
e 287 288 1
e 288 308 1
e 288 289 1
e 289 309 1
e 289 290 1
e 290 310 1
e 290 291 1
e 291 311 1
e 292 314 1
e 292 293 1
e 293 315 1
e 293 294 1
e 294 316 1
e 294 295 1
e 295 317 1
e 295 296 1
e 296 318 1
e 296 297 1
e 297 319 1
e 298 320 1
e 298 299 1
e 299 321 1
e 299 300 1
e 300 322 1
e 300 301 1
e 301 323 1
e 301 302 1
e 302 324 1
e 302 303 1
e 303 325 1
e 303 304 1
e 304 326 1
e 304 305 1
e 305 327 1
e 305 306 1
e 306 328 1
e 306 307 1
e 307 329 1
e 307 308 1
e 308 330 1
e 308 309 1
e 309 331 1
e 309 310 1
e 310 332 1
e 310 311 1
e 311 333 1
e 311 312 1
e 312 334 1
e 312 313 1
e 313 335 1
e 313 314 1
e 314 336 1
e 314 315 1
e 315 337 1
e 315 316 1
e 316 338 1
e 316 317 1
e 317 339 1
e 317 318 1
e 318 340 1
e 318 319 1
e 319 341 1
e 320 342 1
e 320 321 1
e 321 343 1
e 321 322 1
e 322 344 1
e 322 323 1
e 323 345 1
e 323 324 1
e 324 346 1
e 324 325 1
e 325 347 1
e 325 326 1
e 326 348 1
e 326 327 1
e 327 349 1
e 327 328 1
e 328 350 1
e 328 329 1
e 329 351 1
e 329 330 1
e 330 352 1
e 330 331 1
e 331 353 1
e 331 332 1
e 332 354 1
e 332 333 1
e 333 355 1
e 333 334 1
e 334 356 1
e 334 335 1
e 335 357 1
e 335 336 1
e 336 358 1
e 336 337 1
e 337 359 1
e 337 338 1
e 338 360 1
e 338 339 1
e 339 361 1
e 339 340 1
e 340 362 1
e 340 341 1
e 341 363 1
e 342 365 1
e 342 343 1
e 343 366 1
e 343 344 1
e 344 367 1
e 344 345 1
e 345 368 1
e 345 346 1
e 346 369 1
e 346 347 1
e 347 370 1
e 347 348 1
e 348 371 1
e 348 349 1
e 349 372 1
e 349 350 1
e 350 373 1
e 350 351 1
e 351 374 1
e 351 352 1
e 352 375 1
e 352 353 1
e 353 376 1
e 353 354 1
e 354 377 1
e 354 355 1
e 355 378 1
e 355 356 1
e 356 379 1
e 356 357 1
e 357 380 1
e 357 358 1
e 358 381 1
e 358 359 1
e 359 382 1
e 359 360 1
e 360 383 1
e 360 361 1
e 361 384 1
e 361 362 1
e 362 385 1
e 362 363 1
e 363 386 1
e 363 364 1
e 365 387 1
e 365 366 1
e 366 388 1
e 366 367 1
e 367 389 1
e 367 368 1
e 368 390 1
e 368 369 1
e 369 391 1
e 369 370 1
e 370 392 1
e 370 371 1
e 371 393 1
e 371 372 1
e 372 394 1
e 372 373 1
e 373 395 1
e 373 374 1
e 374 396 1
e 374 375 1
e 375 397 1
e 375 376 1
e 376 398 1
e 376 377 1
e 377 399 1
e 377 378 1
e 378 400 1
e 378 379 1
e 379 401 1
e 379 380 1
e 380 402 1
e 380 381 1
e 381 403 1
e 381 382 1
e 382 404 1
e 382 383 1
e 383 405 1
e 383 384 1
e 384 406 1
e 384 385 1
e 385 407 1
e 385 386 1
e 386 408 1
e 387 412 1
e 387 388 1
e 388 413 1
e 388 389 1
e 389 414 1
e 389 390 1
e 390 415 1
e 390 391 1
e 391 416 1
e 391 392 1
e 392 417 1
e 392 393 1
e 393 418 1
e 393 394 1
e 394 419 1
e 394 395 1
e 395 420 1
e 395 396 1
e 396 421 1
e 396 397 1
e 397 422 1
e 397 398 1
e 398 423 1
e 398 399 1
e 399 424 1
e 399 400 1
e 400 425 1
e 400 401 1
e 401 426 1
e 401 402 1
e 402 427 1
e 402 403 1
e 403 428 1
e 403 404 1
e 404 429 1
e 404 405 1
e 405 430 1
e 405 406 1
e 406 431 1
e 406 407 1
e 407 432 1
e 407 408 1
e 408 433 1
e 409 435 1
e 409 410 1
e 410 436 1
e 410 411 1
e 411 437 1
e 411 412 1
e 412 438 1
e 412 413 1
e 413 439 1
e 413 414 1
e 414 440 1
e 414 415 1
e 415 441 1
e 415 416 1
e 416 442 1
e 416 417 1
e 417 443 1
e 417 418 1
e 418 444 1
e 418 419 1
e 419 445 1
e 419 420 1
e 420 446 1
e 420 421 1
e 421 447 1
e 421 422 1
e 422 448 1
e 422 423 1
e 423 449 1
e 423 424 1
e 424 450 1
e 424 425 1
e 425 451 1
e 425 426 1
e 426 452 1
e 426 427 1
e 427 453 1
e 427 428 1
e 428 454 1
e 428 429 1
e 429 455 1
e 429 430 1
e 430 456 1
e 430 431 1
e 431 457 1
e 431 432 1
e 432 458 1
e 432 433 1
e 433 459 1
e 433 434 1
e 434 460 1
e 435 462 1
e 435 436 1
e 436 463 1
e 436 437 1
e 437 464 1
e 437 438 1
e 438 465 1
e 438 439 1
e 439 466 1
e 439 440 1
e 440 467 1
e 440 441 1
e 441 468 1
e 441 442 1
e 442 469 1
e 442 443 1
e 443 470 1
e 443 444 1
e 444 471 1
e 444 445 1
e 445 472 1
e 445 446 1
e 446 473 1
e 446 447 1
e 447 474 1
e 447 448 1
e 448 475 1
e 448 449 1
e 449 476 1
e 449 450 1
e 450 477 1
e 450 451 1
e 451 478 1
e 451 452 1
e 452 479 1
e 452 453 1
e 453 480 1
e 453 454 1
e 454 481 1
e 454 455 1
e 455 482 1
e 455 456 1
e 456 483 1
e 456 457 1
e 457 484 1
e 457 458 1
e 458 485 1
e 458 459 1
e 459 486 1
e 459 460 1
e 460 487 1
e 460 461 1
e 461 488 1
e 462 489 1
e 462 463 1
e 463 490 1
e 463 464 1
e 464 491 1
e 464 465 1
e 465 492 1
e 465 466 1
e 466 493 1
e 466 467 1
e 467 494 1
e 467 468 1
e 468 495 1
e 468 469 1
e 469 496 1
e 469 470 1
e 470 497 1
e 470 471 1
e 471 498 1
e 471 472 1
e 472 499 1
e 472 473 1
e 473 500 1
e 473 474 1
e 474 501 1
e 474 475 1
e 475 502 1
e 475 476 1
e 476 503 1
e 476 477 1
e 477 504 1
e 477 478 1
e 478 505 1
e 478 479 1
e 479 506 1
e 479 480 1
e 480 507 1
e 480 481 1
e 481 508 1
e 481 482 1
e 482 509 1
e 482 483 1
e 483 510 1
e 483 484 1
e 484 511 1
e 484 485 1
e 485 512 1
e 485 486 1
e 486 513 1
e 486 487 1
e 487 514 1
e 487 488 1
e 488 515 1
e 489 518 1
e 489 490 1
e 490 519 1
e 490 491 1
e 491 520 1
e 491 492 1
e 492 521 1
e 492 493 1
e 493 522 1
e 493 494 1
e 494 523 1
e 494 495 1
e 495 524 1
e 495 496 1
e 496 525 1
e 496 497 1
e 497 526 1
e 497 498 1
e 498 527 1
e 498 499 1
e 499 528 1
e 499 500 1
e 500 529 1
e 500 501 1
e 501 530 1
e 501 502 1
e 502 531 1
e 502 503 1
e 503 532 1
e 503 504 1
e 504 533 1
e 504 505 1
e 505 534 1
e 505 506 1
e 506 535 1
e 506 507 1
e 507 536 1
e 507 508 1
e 508 537 1
e 508 509 1
e 509 538 1
e 509 510 1
e 510 539 1
e 510 511 1
e 511 540 1
e 511 512 1
e 512 513 1
e 513 514 1
e 514 515 1
e 516 542 1
e 516 517 1
e 517 543 1
e 517 518 1
e 518 544 1
e 518 519 1
e 519 545 1
e 519 520 1
e 520 546 1
e 520 521 1
e 521 547 1
e 521 522 1
e 522 548 1
e 522 523 1
e 523 549 1
e 523 524 1
e 524 550 1
e 524 525 1
e 525 551 1
e 525 526 1
e 526 552 1
e 526 527 1
e 527 553 1
e 527 528 1
e 528 554 1
e 528 529 1
e 529 555 1
e 529 530 1
e 530 556 1
e 530 531 1
e 531 557 1
e 531 532 1
e 532 558 1
e 532 533 1
e 533 559 1
e 533 534 1
e 534 560 1
e 534 535 1
e 535 561 1
e 535 536 1
e 536 562 1
e 536 537 1
e 537 563 1
e 537 538 1
e 538 564 1
e 538 539 1
e 539 565 1
e 539 540 1
e 540 566 1
e 541 567 1
e 541 542 1
e 542 568 1
e 542 543 1
e 543 569 1
e 543 544 1
e 544 570 1
e 544 545 1
e 545 571 1
e 545 546 1
e 546 572 1
e 546 547 1
e 547 573 1
e 547 548 1
e 548 549 1
e 549 550 1
e 550 551 1
e 551 552 1
e 552 574 1
e 552 553 1
e 553 575 1
e 553 554 1
e 554 576 1
e 554 555 1
e 555 577 1
e 555 556 1
e 556 557 1
e 557 558 1
e 558 559 1
e 559 560 1
e 560 561 1
e 561 562 1
e 562 563 1
e 563 564 1
e 564 578 1
e 564 565 1
e 565 579 1
e 565 566 1
e 566 580 1
e 567 581 1
e 567 568 1
e 568 582 1
e 568 569 1
e 569 583 1
e 569 570 1
e 570 584 1
e 570 571 1
e 571 572 1
e 572 573 1
e 574 575 1
e 575 576 1
e 576 585 1
e 576 577 1
e 577 586 1
e 578 579 1
e 579 580 1
e 581 587 1
e 581 582 1
e 582 588 1
e 582 583 1
e 583 589 1
e 583 584 1
e 584 590 1
e 585 586 1
e 587 591 1
e 587 588 1
e 588 592 1
e 588 589 1
e 589 593 1
e 589 590 1
e 591 592 1
e 592 593 1